0000000000000000
0000000000000000
0000000000000000
0000000000000000
0000000000000000
0000000000000000
0000000000000000
0000000000000000
0000001111111000
0000000000011000
0000000000011100
0000000000011100
0000000000011100
0000000000011100
0000001111111000
0000000000000000